p cnf 50 10
x -2 5 6 -8 9 11 -12 13 14 -16 19 20 21 22 26 -29 -30 -31 34 -35 -36 -39 43 44 -45 -49 0
x -1 3 -5 -6 -8 -9 -11 12 -15 16 17 18 -20 -21 22 24 -26 -27 -28 -29 -30 -31 32 35 36 -37 -39 -41 -44 47 48 50 0
x -1 -5 -7 8 -10 -15 17 -19 21 -22 24 26 -28 -32 33 -34 -35 -37 -38 -39 -40 46 47 50 0
x 8 -11 13 14 -17 -18 20 25 26 28 -29 -35 -36 37 -40 43 -44 47 -49 0
x 1 -3 6 7 13 14 -16 17 19 21 -23 -26 27 -28 -31 -32 33 35 -36 -37 38 42 -43 -45 47 -49 0
x -1 -3 9 -10 11 14 -15 18 -19 -20 -21 -22 24 26 27 28 -29 -30 -31 -33 34 -35 37 38 -39 -42 43 -44 46 48 -49 0
x -2 -3 -6 -8 10 11 12 15 -16 -17 18 19 20 23 24 -27 -33 -35 36 37 -40 -41 43 -46 -48 49 0
x 1 -2 -3 -4 -5 -7 -10 12 15 -16 -20 -21 23 -24 25 27 -28 -29 -30 -32 33 -34 36 38 -40 -41 46 47 -48 -49 0
x -2 3 -4 -5 8 10 14 15 -16 17 20 -25 26 -27 -29 31 -33 -34 -36 -38 -39 42 -43 -46 47 49 50 0
x -1 -2 3 -5 6 7 8 -9 10 12 13 -14 -16 17 20 -24 25 26 28 -29 31 -33 -36 37 -41 -42 -44 45 -48 50 0
g -20